; benchmark generated from python API
(set-info :status unknown)
(declare-datatypes ((RealState 0)) (((RMk1 (rval1 Real)) (RMk2 (rval2 Real)))))
 (assert
 (forall ((|v17:0| Real) )(forall ((|v16:1| Real) )(forall ((|v15:2| Real) )(forall ((|v14:3| Real) )(forall ((|v13:4| Real) )(forall ((|v12:5| Real) )(exists ((|v11:6_st| RealState) (val!10152 Real) )(exists ((|v10:7_st| RealState) (val!10153 Real) )(exists ((|v9:8_st| RealState) (val!10154 Real) )(exists ((|v8:9_st| RealState) (val!10155 Real) )(exists ((|v7:10_st| RealState) (val!10156 Real) )(exists ((|v6:11_st| RealState) (val!10157 Real) )(forall ((|v5:12| Real) )(forall ((|v4:13| Real) )(forall ((|v3:14| Real) )(forall ((|v2:15| Real) )(forall ((|v1:16| Real) )(forall ((|v0:17| Real) )(let ((?x7982 (* 13.0 |v13:4|)))
 (let ((?x2749 (* 7.0 |v5:12|)))
 (let ((?x6045 (* 4.0 |v2:15|)))
 (let ((?x8841 (* 20.0 |v0:17|)))
 (let ((?x9214 (rval2 |v8:9_st|)))
 (let ((?x2249 (- 7.0)))
 (let ((?x4805 (* ?x2249 ?x9214)))
 (let ((?x9344 (+ (+ (+ (+ (* (- 16.0) ?x9214) (* (- 5.0) |v2:15|)) ?x4805) ?x8841) ?x6045)))
 (let ((?x1687 (- 5.0)))
 (let ((?x7091 (- 6.0)))
 (let ((?x4804 (* ?x7091 |v17:0|)))
 (let ((?x785 (* 20.0 |v13:4|)))
 (let ((?x5195 (* 13.0 |v12:5|)))
 (let ((?x9566 (* ?x7091 |v4:13|)))
 (let ((?x4512 (+ (+ (+ (+ (* 6.0 |v16:1|) (* 10.0 |v13:4|)) (* 3.0 |v12:5|)) ?x9566) ?x5195)))
 (let ((?x4383 (rval2 |v6:11_st|)))
 (let ((?x7876 (- 9.0)))
 (let ((?x4658 (* ?x7876 ?x4383)))
 (let ((?x319 (* ?x1687 |v2:15|)))
 (let ((?x5123 (* 18.0 |v16:1|)))
 (let ((?x3472 (* 5.0 |v16:1|)))
 (let ((?x3342 (+ (+ (+ (* (- 12.0) |v17:0|) (* 8.0 |v13:4|)) (* (- 16.0) |v2:15|)) ?x3472)))
 (let (($x2489 (and (<= (+ (+ (+ ?x3342 ?x5123) ?x319) ?x4658) 16.0) (<= (+ (+ ?x4512 ?x785) ?x4804) ?x1687))))
 (let ((?x9046 (- 19.0)))
 (let ((?x2564 (* ?x9046 |v2:15|)))
 (let ((?x212 (- 20.0)))
 (let ((?x5663 (* ?x212 ?x9214)))
 (let ((?x3684 (- 12.0)))
 (let ((?x3985 (* ?x3684 |v1:16|)))
 (let ((?x7545 (* 19.0 |v3:14|)))
 (let ((?x3209 (+ (+ (+ (* ?x1687 |v4:13|) (* (- 10.0) (rval2 |v7:10_st|))) (* 2.0 |v0:17|)) ?x7545)))
 (let ((?x5967 (- 10.0)))
 (let ((?x7661 (* ?x5967 |v13:4|)))
 (let ((?x5828 (rval2 |v11:6_st|)))
 (let ((?x3558 (- 8.0)))
 (let ((?x2867 (* ?x3558 ?x5828)))
 (let ((?x8634 (* 6.0 |v15:2|)))
 (let ((?x2129 (* 16.0 ?x4383)))
 (let ((?x605 (+ (+ (+ (* 6.0 |v16:1|) (* (- 1.0) |v5:12|)) (* 4.0 ?x4383)) ?x2129)))
 (let (($x2418 (or (<= (+ (+ (+ ?x605 ?x8634) ?x2867) ?x7661) 1.0) (<= (+ (+ (+ ?x3209 ?x3985) ?x5663) ?x2564) ?x1687))))
 (let ((?x3009 (* 0.0 |v2:15|)))
 (let ((?x8936 (* 6.0 |v13:4|)))
 (let ((?x5914 (+ (+ (+ (+ ?x3009 (* ?x2249 ?x5828)) (* (- 3.0) ?x5828)) (* 0.0 |v0:17|)) ?x5123)))
 (let ((?x7919 (- 2.0)))
 (let ((?x5470 (rval2 |v7:10_st|)))
 (let ((?x3237 (- 14.0)))
 (let ((?x8001 (* ?x3237 ?x5470)))
 (let ((?x3704 (rval2 |v10:7_st|)))
 (let ((?x4856 (* 14.0 ?x3704)))
 (let ((?x3587 (+ (+ (+ (* 12.0 (rval2 |v9:8_st|)) (* 20.0 ?x5828)) (* ?x7876 ?x3704)) (* (- 16.0) |v13:4|))))
 (let (($x6002 (and (<= (+ (+ (+ ?x3587 ?x4856) ?x7661) ?x8001) ?x7919) (<= (+ (+ ?x5914 ?x8936) ?x3009) ?x9046))))
 (let ((?x1755 (* 5.0 |v3:14|)))
 (let ((?x1927 (- 16.0)))
 (let ((?x2242 (* ?x1927 |v14:3|)))
 (let ((?x9401 (* 0.0 ?x4383)))
 (let ((?x908 (+ (+ (+ (+ (* 13.0 ?x5828) (* ?x3684 |v13:4|)) ?x9401) ?x9401) (* (- 11.0) |v13:4|))))
 (let ((?x5167 (* 16.0 |v15:2|)))
 (let ((?x5974 (* 4.0 ?x5470)))
 (let ((?x2740 (* 11.0 |v12:5|)))
 (let ((?x1456 (+ (+ (+ (* 17.0 |v17:0|) (* ?x5967 |v2:15|)) (* 2.0 (rval2 |v9:8_st|))) (* ?x1687 |v15:2|))))
 (let (($x7054 (and (<= (+ (+ (+ ?x1456 ?x2740) ?x5974) ?x5167) 13.0) (<= (+ (+ ?x908 ?x2242) ?x1755) ?x7876))))
 (let ((?x5786 (- 18.0)))
 (let ((?x1017 (* ?x5786 ?x5828)))
 (let ((?x909 (* ?x3558 |v2:15|)))
 (let ((?x7793 (* 11.0 |v4:13|)))
 (let ((?x7358 (rval2 |v9:8_st|)))
 (let ((?x7878 (- 13.0)))
 (let ((?x5172 (* ?x7878 ?x7358)))
 (let ((?x5638 (+ (+ (+ (+ (* ?x1927 ?x5470) (* (- 17.0) |v1:16|)) (* 2.0 |v12:5|)) ?x5172) ?x7793)))
 (let (($x9144 (and (and (<= (+ (+ ?x5638 ?x909) ?x1017) 4.0) (or $x7054 $x6002)) (or (or $x2418 $x2489) (<= (+ (+ ?x9344 ?x2749) ?x7982) 16.0)))))
 (let ((?x5373 (* 18.0 |v15:2|)))
 (let ((?x9308 (- 1.0)))
 (let ((?x3754 (* ?x9308 |v14:3|)))
 (let ((?x3048 (* ?x1927 |v1:16|)))
 (let ((?x2160 (* 7.0 ?x7358)))
 (let ((?x6880 (+ (+ (+ (+ (* ?x9308 ?x4383) (* ?x2249 |v14:3|)) (* 12.0 ?x4383)) ?x2160) ?x3048)))
 (let ((?x2771 (* 18.0 |v12:5|)))
 (let ((?x3868 (+ (+ (+ (+ ?x7545 (* ?x3684 ?x5470)) (* ?x9046 |v5:12|)) (* 11.0 |v13:4|)) (* ?x3558 |v17:0|))))
 (let (($x9322 (or (<= (+ (+ ?x3868 (* ?x1927 ?x4383)) ?x2771) 1.0) (<= (+ (+ ?x6880 ?x3754) ?x5373) ?x7091))))
 (let ((?x2271 (- 11.0)))
 (let ((?x4904 (* ?x2271 |v16:1|)))
 (let ((?x7880 (+ (+ (+ (+ (* ?x1927 ?x5828) (* (- 3.0) |v5:12|)) (* ?x3558 |v14:3|)) ?x4904) ?x7358)))
 (let ((?x4232 (- 15.0)))
 (let ((?x9007 (* 3.0 ?x7358)))
 (let ((?x6128 (* ?x9308 |v2:15|)))
 (let ((?x5066 (+ (+ (+ (* 5.0 |v2:15|) (* 18.0 |v4:13|)) (* ?x1927 |v15:2|)) (* ?x5786 |v13:4|))))
 (let (($x3673 (and (<= (+ (+ (+ ?x5066 ?x6128) (* 15.0 ?x4383)) ?x9007) ?x4232) (<= (+ (+ ?x7880 ?x785) (* ?x5786 |v12:5|)) 11.0))))
 (let ((?x2373 (* ?x4232 |v2:15|)))
 (let ((?x7786 (* 10.0 |v17:0|)))
 (let ((?x6448 (+ (+ (+ (* ?x7919 ?x7358) (* 14.0 ?x7358)) (* 11.0 ?x4383)) (* ?x7878 ?x5470))))
 (let ((?x5385 (* 14.0 ?x4383)))
 (let ((?x943 (+ (+ (+ (* 2.0 |v17:0|) (* 20.0 ?x5828)) (* 19.0 ?x3704)) (* ?x5786 |v17:0|))))
 (let (($x2971 (or (<= (+ (+ (+ ?x943 ?x5385) |v15:2|) |v0:17|) ?x1927) (<= (+ (+ (+ ?x6448 ?x8001) ?x7786) ?x2373) ?x4232))))
 (let ((?x8073 (* 17.0 |v13:4|)))
 (let ((?x7189 (* 8.0 ?x4383)))
 (let ((?x5762 (* 14.0 |v17:0|)))
 (let ((?x5222 (+ (+ (+ (* (- 17.0) |v2:15|) (* 9.0 |v15:2|)) (* (- 17.0) |v5:12|)) ?x1755)))
 (let ((?x6161 (* 14.0 |v1:16|)))
 (let ((?x7492 (* 16.0 ?x3704)))
 (let ((?x6059 (+ (+ (+ (* ?x3558 |v15:2|) (* 11.0 ?x4383)) (* 5.0 ?x9214)) (* 2.0 |v14:3|))))
 (let (($x199 (or (<= (+ (+ (+ ?x6059 ?x7492) (* ?x7876 ?x5828)) ?x6161) 14.0) (<= (+ (+ (+ ?x5222 ?x5762) ?x7189) ?x8073) 3.0))))
 (let ((?x4171 (* 12.0 |v16:1|)))
 (let ((?x2936 (* 13.0 |v1:16|)))
 (let ((?x7321 (* 13.0 |v2:15|)))
 (let ((?x2868 (* 13.0 ?x3704)))
 (let ((?x6767 (+ (+ (+ (+ (* ?x2271 |v12:5|) (* ?x2249 |v12:5|)) (* ?x1927 |v17:0|)) ?x2868) ?x7321)))
 (let ((?x3940 (* ?x3237 |v17:0|)))
 (let ((?x4736 (* ?x1687 |v1:16|)))
 (let ((?x2005 (* 10.0 |v13:4|)))
 (let ((?x3151 (* 7.0 |v1:16|)))
 (let ((?x7466 (+ (+ (+ (* 10.0 |v2:15|) (* ?x3237 |v2:15|)) ?x3985) ?x3151)))
 (let (($x8675 (or (<= (+ (+ (+ ?x7466 ?x2005) ?x4736) ?x3940) 1.0) (<= (+ (+ ?x6767 ?x2936) ?x4171) ?x7878))))
 (let ((?x8229 (* 12.0 |v14:3|)))
 (let ((?x546 (* 4.0 |v17:0|)))
 (let ((?x4681 (+ (+ (+ (+ (* ?x3558 |v4:13|) (* ?x7876 |v3:14|)) (* 18.0 |v17:0|)) ?x4736) ?x546)))
 (let ((?x4091 (* 20.0 |v5:12|)))
 (let ((?x2643 (* 16.0 |v3:14|)))
 (let ((?x636 (* 8.0 |v3:14|)))
 (let ((?x9015 (+ (+ (+ (+ (* ?x212 ?x5470) ?x7492) (* (- 4.0) |v2:15|)) (* 3.0 |v5:12|)) ?x636)))
 (let (($x3951 (or (<= (+ (+ ?x9015 ?x2643) ?x4091) ?x4232) (<= (+ (+ ?x4681 ?x8229) (* 15.0 ?x5828)) 9.0))))
 (let ((?x1259 (* ?x5967 |v15:2|)))
 (let ((?x2535 (+ (+ (+ (+ (* ?x3237 ?x4383) ?x8936) (* ?x3237 |v15:2|)) (* ?x2249 |v3:14|)) |v16:1|)))
 (let ((?x7005 (* 9.0 ?x4383)))
 (let ((?x8310 (* 18.0 |v0:17|)))
 (let ((?x5895 (* ?x7919 |v5:12|)))
 (let ((?x7866 (+ (+ (+ (+ (+ ?x4904 (* ?x7091 |v12:5|)) (* ?x3684 |v12:5|)) ?x6128) ?x5895) ?x8310)))
 (let (($x2368 (or (<= (+ ?x7866 ?x7005) ?x3558) (<= (+ (+ ?x2535 (* ?x1927 ?x7358)) ?x1259) 9.0))))
 (let ((?x1466 (* ?x9308 |v4:13|)))
 (let ((?x2941 (* 11.0 ?x5828)))
 (let ((?x5241 (* ?x7919 ?x9214)))
 (let ((?x1951 (+ (+ (+ (+ (* 2.0 |v3:14|) (* ?x2249 ?x7358)) (* 14.0 |v0:17|)) ?x5241) ?x2941)))
 (let ((?x3963 (* ?x3237 |v0:17|)))
 (let ((?x4064 (* ?x4232 |v14:3|)))
 (let ((?x7208 (+ (+ (+ (+ ?x3704 (* ?x3684 |v3:14|)) (* 0.0 |v3:14|)) (* ?x2249 |v16:1|)) ?x4064)))
 (let (($x184 (and (<= (+ (+ ?x7208 (* ?x1687 ?x4383)) ?x3963) 19.0) (<= (+ (+ ?x1951 ?x1466) (* ?x2271 ?x3704)) 14.0))))
 (let (($x4367 (and (or (and $x184 $x2368) (or $x3951 $x8675)) (and (and $x199 $x2971) (and $x3673 $x9322)))))
 (let ((?x1868 (* 5.0 ?x7358)))
 (let ((?x2778 (+ (+ (+ (+ (* 3.0 |v15:2|) (* ?x3237 |v1:16|)) (* 19.0 |v0:17|)) ?x1868) (* (- 17.0) ?x5470))))
 (let ((?x1049 (* ?x5786 ?x7358)))
 (let ((?x3891 (+ (+ (+ (+ (* 9.0 |v0:17|) (* (- 3.0) |v13:4|)) (* ?x7876 |v12:5|)) ?x2005) ?x7982)))
 (let (($x8733 (or (<= (+ (+ ?x3891 (* (- 3.0) |v14:3|)) ?x1049) ?x2271) (<= (+ (+ ?x2778 (* ?x212 |v12:5|)) ?x3940) 5.0))))
 (let ((?x1194 (* ?x212 ?x5828)))
 (let ((?x1397 (* 6.0 ?x9214)))
 (let ((?x2589 (* 19.0 |v16:1|)))
 (let ((?x3610 (+ (+ (+ (+ ?x6161 (* 13.0 ?x7358)) (* 8.0 ?x5470)) (* ?x9046 |v3:14|)) ?x2589)))
 (let ((?x1018 (* 11.0 ?x3704)))
 (let ((?x8078 (+ (+ (+ (* 13.0 |v17:0|) (* (- 3.0) ?x5470)) (* 3.0 |v4:13|)) ?x7661)))
 (let (($x4679 (and (<= (+ (+ (+ ?x8078 ?x1018) (* ?x2271 ?x5470)) ?x2005) 14.0) (<= (+ (+ ?x3610 ?x1397) ?x1194) 20.0))))
 (let ((?x7925 (- 3.0)))
 (let ((?x6675 (* ?x7925 ?x4383)))
 (let ((?x8138 (* ?x9308 ?x3704)))
 (let ((?x9048 (+ (+ (+ (* 18.0 |v17:0|) (* 18.0 ?x5470)) (* ?x7878 ?x9214)) (* ?x4232 |v12:5|))))
 (let ((?x2445 (* 15.0 |v1:16|)))
 (let ((?x1134 (* 4.0 |v0:17|)))
 (let ((?x1803 (* ?x7876 |v5:12|)))
 (let ((?x3662 (+ (+ (+ (+ (* ?x5786 ?x9214) (* 0.0 |v4:13|)) (* 3.0 |v4:13|)) ?x1803) ?x1134)))
 (let (($x988 (and (<= (+ (+ ?x3662 (* 11.0 ?x9214)) ?x2445) ?x9308) (<= (+ (+ (+ ?x9048 ?x8138) (* ?x9046 ?x3704)) ?x6675) 11.0))))
 (let ((?x6307 (* 11.0 |v1:16|)))
 (let ((?x7710 (* 11.0 ?x7358)))
 (let ((?x753 (+ (+ (+ (* 13.0 |v17:0|) (* ?x3558 ?x4383)) (* ?x1687 ?x5470)) (* ?x7878 |v13:4|))))
 (let ((?x1265 (* 20.0 ?x5828)))
 (let ((?x7565 (+ (+ (+ (+ ?x2643 (* 7.0 |v0:17|)) ?x8138) (* 5.0 ?x3704)) (* ?x7925 |v15:2|))))
 (let (($x9459 (or (<= (+ (+ ?x7565 (* (- 17.0) ?x5828)) ?x1265) 20.0) (<= (+ (+ (+ ?x753 (* 9.0 |v13:4|)) ?x7710) ?x6307) 20.0))))
 (let ((?x185 (* 18.0 ?x3704)))
 (let ((?x5461 (* ?x7919 |v2:15|)))
 (let ((?x7651 (* 2.0 |v3:14|)))
 (let ((?x7424 (+ (+ (* ?x4232 |v1:16|) (* ?x9308 |v5:12|)) ?x7651)))
 (let (($x3850 (<= (+ (+ (+ (+ ?x7424 (* 14.0 ?x9214)) (* ?x9308 ?x7358)) ?x5461) ?x185) 17.0)))
 (let ((?x7910 (* 14.0 |v3:14|)))
 (let ((?x7902 (+ (+ (+ (+ (* 3.0 |v16:1|) (* ?x7876 |v12:5|)) (* (- 4.0) |v2:15|)) ?x7786) (* ?x3684 ?x4383))))
 (let ((?x7122 (- 17.0)))
 (let ((?x8791 (* ?x7122 |v4:13|)))
 (let ((?x1098 (+ (+ (+ (+ (+ (* 17.0 ?x3704) ?x3754) (* 18.0 |v4:13|)) ?x8791) ?x1017) ?x185)))
 (let ((?x4592 (- 4.0)))
 (let ((?x6014 (* ?x4592 ?x3704)))
 (let ((?x386 (* 20.0 ?x7358)))
 (let ((?x5619 (* ?x7091 |v0:17|)))
 (let ((?x2085 (+ (+ (+ (+ (* ?x7876 |v4:13|) (* ?x7878 ?x4383)) (* 19.0 ?x5470)) ?x5619) ?x386)))
 (let (($x1453 (and (<= (+ (+ ?x2085 (* ?x7878 |v15:2|)) ?x6014) ?x5786) (<= (+ ?x1098 (* ?x4232 |v17:0|)) 3.0))))
 (let ((?x2448 (* ?x4232 |v1:16|)))
 (let ((?x8982 (* ?x7925 |v2:15|)))
 (let ((?x6586 (+ (+ (+ (+ (+ ?x2589 ?x4805) (* ?x5967 |v14:3|)) (* 17.0 |v17:0|)) ?x8982) ?x2448)))
 (let ((?x8550 (* ?x7876 ?x3704)))
 (let ((?x5814 (* ?x2271 |v0:17|)))
 (let ((?x80 (* ?x5786 |v4:13|)))
 (let ((?x3927 (* ?x4592 ?x5828)))
 (let ((?x4406 (+ (+ (+ (+ (* ?x3237 |v2:15|) (* ?x4232 ?x5470)) (* 19.0 ?x9214)) ?x3927) ?x80)))
 (let (($x3413 (or (<= (+ (+ ?x4406 ?x5814) ?x8550) ?x1927) (<= (+ ?x6586 (* ?x7122 ?x3704)) 7.0))))
 (let ((?x8711 (* 12.0 ?x3704)))
 (let ((?x9059 (* 14.0 |v13:4|)))
 (let ((?x7891 (* ?x7919 |v12:5|)))
 (let ((?x8946 (+ (+ (+ (+ (* 8.0 |v17:0|) ?x3940) (* ?x7876 |v12:5|)) (* 0.0 ?x5470)) ?x7891)))
 (let ((?x7653 (* 6.0 |v14:3|)))
 (let ((?x657 (* ?x2249 |v1:16|)))
 (let ((?x7450 (+ (+ (+ (+ (* ?x7122 |v13:4|) (* ?x5786 |v2:15|)) (* ?x3684 |v17:0|)) ?x657) (* 0.0 |v15:2|))))
 (let ((?x1503 (* 8.0 |v12:5|)))
 (let ((?x9003 (* ?x2249 |v16:1|)))
 (let ((?x2269 (* ?x9046 |v5:12|)))
 (let ((?x5687 (+ (+ (+ (+ (+ (* 17.0 ?x5470) ?x9401) (* 0.0 ?x5828)) ?x7891) ?x2269) ?x9003)))
 (let (($x7525 (and (<= (+ ?x5687 ?x1503) 19.0) (<= (+ (+ ?x7450 ?x7653) (* ?x7122 ?x7358)) 14.0))))
 (let ((?x7757 (* ?x1687 ?x5828)))
 (let ((?x9304 (* 18.0 ?x9214)))
 (let ((?x2552 (+ (+ (+ (+ ?x7757 (* ?x1927 |v5:12|)) (* 18.0 ?x5828)) (* 20.0 |v15:2|)) ?x4658)))
 (let ((?x651 (* ?x1687 ?x9214)))
 (let ((?x9424 (* 16.0 |v16:1|)))
 (let ((?x9377 (* 7.0 |v12:5|)))
 (let ((?x5845 (* ?x2271 |v1:16|)))
 (let ((?x540 (+ (+ (+ (+ (* ?x7878 ?x4383) (* 12.0 ?x5470)) (* 12.0 |v3:14|)) ?x5845) ?x9377)))
 (let (($x7305 (or (<= (+ (+ ?x540 ?x9424) ?x651) 9.0) (<= (+ (+ ?x2552 ?x9304) ?x7757) ?x1687))))
 (let (($x334 (or (or (or $x7305 $x7525) (<= (+ (+ ?x8946 ?x9059) ?x8711) ?x1927)) (and (and $x3413 $x1453) (<= (+ (+ ?x7902 (* ?x1687 |v17:0|)) ?x7910) 19.0)))))
 (let (($x5529 (and (or $x334 (or $x3850 (and (and $x9459 $x988) (or $x4679 $x8733)))) (and $x4367 $x9144))))
 (let ((?x6152 (* 8.0 |v2:15|)))
 (let ((?x9523 (* 8.0 ?x5470)))
 (let ((?x443 (* 15.0 ?x7358)))
 (let ((?x904 (* 20.0 |v3:14|)))
 (let ((?x7740 (+ (+ (* 7.0 |v0:17|) (* 6.0 |v0:17|)) ?x904)))
 (let ((?x792 (* 10.0 |v3:14|)))
 (let ((?x4426 (* ?x7876 |v0:17|)))
 (let ((?x5074 (+ (+ (+ (+ (* 17.0 |v3:14|) ?x2867) (* 7.0 |v17:0|)) (* 12.0 |v5:12|)) ?x785)))
 (let (($x6525 (or (<= (+ (+ ?x5074 ?x4426) ?x792) ?x7091) (<= (+ (+ (+ (+ ?x7740 ?x443) ?x6014) ?x9523) ?x6152) ?x3684))))
 (let ((?x8673 (* 5.0 |v12:5|)))
 (let ((?x6472 (* ?x7876 ?x7358)))
 (let ((?x7338 (* 8.0 ?x5828)))
 (let ((?x5741 (+ (+ (+ (+ (* 11.0 |v2:15|) (* 3.0 ?x5470)) (* 8.0 |v0:17|)) ?x7338) ?x6472)))
 (let ((?x1739 (* ?x5967 |v0:17|)))
 (let ((?x4385 (+ (+ (+ (+ (* 5.0 |v17:0|) (* ?x9046 ?x5828)) (* ?x7925 ?x7358)) ?x1739) ?x3754)))
 (let (($x1146 (or (<= (+ (+ ?x4385 ?x4064) (* ?x7122 |v12:5|)) ?x7919) (<= (+ (+ ?x5741 ?x5167) ?x8673) ?x3558))))
 (let ((?x30 (* 15.0 |v16:1|)))
 (let ((?x5007 (+ (+ (+ (* 8.0 ?x3704) (* 3.0 ?x5828)) (* ?x212 ?x3704)) (* ?x9308 ?x5828))))
 (let (($x4563 (or (<= (+ (+ (+ ?x5007 (* 20.0 |v17:0|)) (* ?x5967 ?x3704)) ?x30) 2.0) (and $x1146 $x6525))))
 (let ((?x9340 (* 9.0 |v5:12|)))
 (let ((?x1139 (* 5.0 |v5:12|)))
 (let ((?x9418 (+ (+ (+ (+ (* 7.0 ?x9214) |v15:2|) (* 2.0 |v4:13|)) (* ?x4232 |v4:13|)) ?x5461)))
 (let ((?x8921 (* 11.0 ?x5470)))
 (let ((?x7996 (+ (+ (+ (+ (* 2.0 |v16:1|) (* 11.0 |v17:0|)) ?x6152) (* 2.0 |v0:17|)) ?x651)))
 (let ((?x3609 (* ?x5967 |v5:12|)))
 (let ((?x6438 (* 7.0 |v14:3|)))
 (let ((?x336 (+ (+ (+ (+ (* 15.0 |v14:3|) (* ?x3684 |v2:15|)) (* ?x212 |v15:2|)) ?x6438) ?x6675)))
 (let (($x8845 (or (<= (+ (+ ?x336 (* 13.0 ?x5470)) ?x3609) 0.0) (<= (+ (+ ?x7996 ?x8921) ?x5172) 17.0))))
 (let ((?x8848 (* ?x9046 ?x9214)))
 (let ((?x342 (* ?x5786 |v5:12|)))
 (let ((?x5779 (+ (+ (+ (* ?x1927 |v2:15|) (* ?x7919 |v13:4|)) (* 8.0 |v17:0|)) (* ?x5786 ?x3704))))
 (let ((?x8180 (* 20.0 ?x5470)))
 (let ((?x3271 (* 6.0 ?x3704)))
 (let ((?x586 (+ (+ (+ (+ (* ?x7878 ?x3704) (* ?x9046 |v15:2|)) ?x8229) (* 6.0 |v3:14|)) ?x3271)))
 (let (($x9449 (and (<= (+ (+ ?x586 ?x7793) ?x8180) 15.0) (<= (+ (+ (+ ?x5779 (* ?x4592 ?x5470)) ?x342) ?x8848) 10.0))))
 (let ((?x1405 (* ?x7876 |v1:16|)))
 (let ((?x5039 (* 15.0 |v15:2|)))
 (let ((?x6320 (+ (+ (+ (+ (* ?x3684 |v17:0|) (* 5.0 ?x9214)) (* ?x7878 |v17:0|)) ?x5039) |v1:16|)))
 (let ((?x3429 (* ?x7925 |v3:14|)))
 (let ((?x8469 (+ (+ (+ (+ (* ?x9046 |v0:17|) (* 8.0 |v13:4|)) ?x9523) (* 7.0 ?x9214)) (* ?x4232 ?x9214))))
 (let (($x1633 (or (<= (+ (+ ?x8469 ?x3429) ?x30) ?x5967) (<= (+ (+ ?x6320 ?x2269) ?x1405) 5.0))))
 (let ((?x4003 (* 0.0 |v0:17|)))
 (let ((?x528 (* 11.0 ?x4383)))
 (let ((?x7259 (+ (+ (+ (+ (* ?x3558 |v0:17|) (* ?x7919 ?x4383)) (* 17.0 |v1:16|)) ?x528) ?x2129)))
 (let ((?x4121 (* 18.0 |v3:14|)))
 (let ((?x942 (* ?x7925 ?x5470)))
 (let ((?x5239 (+ (+ (+ (+ (* ?x7878 |v3:14|) (* ?x212 |v1:16|)) ?x1259) (* 2.0 ?x3704)) ?x942)))
 (let (($x7097 (or (<= (+ (+ ?x5239 ?x5195) ?x4121) ?x3558) (<= (+ (+ ?x7259 ?x4003) ?x4856) 14.0))))
 (let ((?x4672 (* ?x3684 |v13:4|)))
 (let ((?x9410 (* 6.0 ?x4383)))
 (let ((?x2162 (* 14.0 |v12:5|)))
 (let ((?x7670 (* ?x4232 |v4:13|)))
 (let ((?x1567 (+ (+ (* ?x7876 |v3:14|) (* 3.0 |v2:15|)) ?x7670)))
 (let ((?x8997 (* ?x9046 |v13:4|)))
 (let ((?x5043 (* 12.0 |v12:5|)))
 (let ((?x3234 (+ (+ (+ (+ (* 7.0 ?x4383) (* 0.0 |v3:14|)) ?x3985) (* 0.0 |v13:4|)) ?x5043)))
 (let (($x1475 (or (<= (+ (+ ?x3234 ?x2448) ?x8997) 19.0) (<= (+ (+ (+ (+ ?x1567 ?x2162) ?x9410) (* ?x212 ?x7358)) ?x4672) ?x1687))))
 (let ((?x6321 (* 13.0 |v4:13|)))
 (let ((?x8984 (+ (+ (+ (+ (+ (* 10.0 |v2:15|) ?x6675) (* ?x4592 |v3:14|)) ?x3271) ?x6321) ?x5814)))
 (let ((?x7633 (* 17.0 |v17:0|)))
 (let ((?x3611 (+ (+ (+ (+ ?x4804 (* ?x7919 |v15:2|)) ?x7793) (* 17.0 |v0:17|)) (* ?x2249 ?x5470))))
 (let (($x6513 (or (<= (+ (+ ?x3611 ?x7633) (* 0.0 |v17:0|)) ?x7919) (<= (+ ?x8984 ?x1049) 2.0))))
 (let ((?x2932 (* ?x5786 |v3:14|)))
 (let ((?x3884 (* 14.0 |v14:3|)))
 (let ((?x6443 (* 7.0 ?x9214)))
 (let ((?x3146 (+ (+ (+ (+ (* ?x7919 |v16:1|) (* 4.0 |v5:12|)) (* 20.0 ?x3704)) ?x6443) ?x3884)))
 (let ((?x1589 (* ?x7876 |v4:13|)))
 (let ((?x803 (+ (+ (+ (+ ?x9566 (* 19.0 ?x7358)) (* ?x2271 ?x7358)) (* ?x3237 |v5:12|)) ?x909)))
 (let (($x5048 (and (<= (+ (+ ?x803 ?x1589) ?x4064) ?x4592) (<= (+ (+ ?x3146 ?x2932) ?x5123) 10.0))))
 (let ((?x1896 (* 14.0 |v16:1|)))
 (let ((?x2607 (* 17.0 |v4:13|)))
 (let ((?x2008 (+ (+ (+ (+ (+ (* 13.0 ?x7358) (* 11.0 |v16:1|)) ?x546) ?x5043) ?x2607) (* ?x212 |v16:1|))))
 (let ((?x7360 (* ?x3684 ?x7358)))
 (let ((?x2395 (* ?x2271 |v5:12|)))
 (let ((?x6862 (+ (+ (+ (+ (* ?x7919 |v17:0|) (* 9.0 |v0:17|)) ?x9059) (* ?x4592 |v14:3|)) (* ?x4232 |v16:1|))))
 (let (($x3729 (and (and (<= (+ (+ ?x6862 ?x2395) ?x7360) 0.0) (<= (+ ?x2008 ?x1896) ?x2271)) $x5048)))
 (let (($x5316 (and (or (or $x3729 (or $x6513 $x1475)) (and (and $x7097 $x1633) (or $x9449 $x8845))) (or (<= (+ (+ ?x9418 ?x1139) ?x9340) ?x1687) $x4563))))
 (let ((?x7539 (* 6.0 |v3:14|)))
 (let ((?x7568 (+ (+ (+ (+ (+ ?x5845 (* 13.0 |v5:12|)) ?x1194) (* 17.0 |v15:2|)) ?x2448) ?x7539)))
 (let ((?x5893 (* 10.0 ?x7358)))
 (let ((?x6403 (* 2.0 |v0:17|)))
 (let ((?x7671 (+ (+ (+ (+ (+ (* 16.0 ?x9214) ?x1803) ?x6152) (* 7.0 |v15:2|)) ?x8180) ?x6403)))
 (let ((?x6672 (* ?x3237 ?x4383)))
 (let ((?x8234 (* 7.0 ?x5470)))
 (let ((?x6129 (+ (+ (+ (+ (* 13.0 |v14:3|) (* ?x7878 ?x4383)) ?x1896) (* 2.0 |v17:0|)) ?x8234)))
 (let ((?x2989 (* 18.0 |v13:4|)))
 (let ((?x5612 (* 6.0 |v17:0|)))
 (let ((?x191 (* 16.0 |v1:16|)))
 (let ((?x5918 (* 18.0 ?x5828)))
 (let ((?x3588 (+ (+ (+ (+ (* ?x2271 |v17:0|) (* 2.0 ?x7358)) (* ?x7919 |v0:17|)) ?x5918) ?x191)))
 (let (($x5104 (and (<= (+ (+ ?x3588 ?x5612) ?x2989) ?x3237) (<= (+ (+ ?x6129 ?x3704) ?x6672) 12.0))))
 (let ((?x8011 (+ (+ (+ (+ (+ (* 10.0 |v1:16|) ?x5470) ?x5814) (* 14.0 |v15:2|)) |v13:4|) ?x909)))
 (let ((?x5983 (* 19.0 ?x3704)))
 (let ((?x3912 (* ?x7919 |v1:16|)))
 (let ((?x8569 (+ (+ (+ (+ (* ?x7091 ?x4383) (* ?x7925 |v13:4|)) (* 4.0 ?x3704)) ?x8634) ?x3912)))
 (let (($x4705 (or (<= (+ (+ ?x8569 ?x5983) (* ?x4592 ?x9214)) 5.0) (<= (+ ?x8011 ?x2242) 9.0))))
 (let ((?x5243 (* ?x5967 |v4:13|)))
 (let ((?x7092 (* ?x9046 |v15:2|)))
 (let ((?x228 (+ (+ (+ (+ (+ (* ?x3684 ?x3704) (* 15.0 |v13:4|)) ?x7360) ?x5974) ?x8997) ?x7092)))
 (let ((?x6987 (* 5.0 |v13:4|)))
 (let ((?x5171 (* 6.0 ?x5828)))
 (let ((?x9013 (+ (+ (+ (+ (* 9.0 |v16:1|) ?x8791) (* ?x7091 |v16:1|)) (* 5.0 |v1:16|)) ?x5470)))
 (let (($x9055 (or (and (<= (+ (+ ?x9013 ?x5171) ?x6987) ?x4592) (<= (+ ?x228 ?x5243) ?x212)) $x4705)))
 (let (($x3004 (or $x9055 (or $x5104 (and (<= (+ ?x7671 ?x5893) 18.0) (<= (+ ?x7568 ?x8673) 3.0))))))
 (let ((?x4125 (* ?x2249 |v5:12|)))
 (let ((?x8392 (* ?x212 ?x5470)))
 (let ((?x5755 (+ (+ (+ (+ (+ (* ?x9046 |v0:17|) (* 0.0 |v16:1|)) ?x8791) ?x8180) ?x8848) ?x8392)))
 (let ((?x2760 (+ (+ (+ (+ (+ ?x8180 (* 15.0 ?x3704)) ?x5619) (* ?x7919 ?x5828)) ?x5241) ?x7670)))
 (let ((?x3405 (* 2.0 ?x3704)))
 (let ((?x7647 (* 19.0 ?x9214)))
 (let ((?x3798 (+ (+ (+ (+ (+ (* ?x7876 |v2:15|) ?x5762) (* ?x7919 |v15:2|)) ?x8921) ?x7647) ?x3405)))
 (let (($x7624 (and (<= (+ ?x3798 (* ?x2249 |v15:2|)) 7.0) (<= (+ ?x2760 (* ?x5786 ?x5470)) 14.0))))
 (let ((?x8872 (* 4.0 |v13:4|)))
 (let ((?x7672 (+ (+ (+ (+ (+ ?x4672 (* ?x9046 |v14:3|)) |v14:3|) (* 2.0 |v2:15|)) ?x8872) ?x1503)))
 (let ((?x6460 (* 13.0 |v5:12|)))
 (let ((?x9259 (+ (+ (+ (+ (+ ?x5893 ?x5893) ?x4904) (* 19.0 |v4:13|)) (* ?x3237 ?x3704)) ?x6460)))
 (let ((?x7130 (* ?x4592 |v14:3|)))
 (let ((?x1626 (+ (+ (+ (+ (* ?x1687 |v16:1|) (* ?x1927 |v2:15|)) |v13:4|) (* ?x5786 |v2:15|)) ?x7130)))
 (let ((?x854 (* ?x7878 |v2:15|)))
 (let ((?x538 (+ (+ (+ (+ ?x1194 (* ?x9308 |v1:16|)) (* ?x1687 |v5:12|)) (* ?x3684 |v16:1|)) ?x854)))
 (let (($x6851 (and (<= (+ (+ ?x538 ?x7982) ?x7653) ?x2271) (<= (+ (+ ?x1626 ?x2771) ?x5241) 8.0))))
 (let (($x7609 (and (and $x6851 (or (<= (+ ?x9259 ?x7793) 13.0) (<= (+ ?x7672 ?x3912) 19.0))) (or $x7624 (<= (+ ?x5755 ?x4125) ?x1927)))))
 (let ((?x4894 (* ?x212 |v15:2|)))
 (let ((?x4986 (+ (+ (+ (* ?x7878 ?x3704) (* ?x1927 ?x5470)) (* 3.0 |v12:5|)) (* ?x1687 |v13:4|))))
 (let ((?x8629 (* ?x1687 |v16:1|)))
 (let ((?x8790 (+ (+ (+ (+ (+ (* ?x5786 |v0:17|) ?x6321) ?x443) (* ?x7919 |v4:13|)) ?x2005) (* 19.0 |v12:5|))))
 (let ((?x9078 (* ?x2271 ?x7358)))
 (let ((?x1971 (* 12.0 |v1:16|)))
 (let ((?x855 (+ (+ (+ (+ ?x2129 (* 14.0 |v15:2|)) (* 6.0 ?x5470)) (* 2.0 |v2:15|)) ?x1971)))
 (let (($x606 (or (<= (+ (+ ?x855 (* ?x212 ?x4383)) ?x9078) ?x9308) (<= (+ ?x8790 ?x8629) ?x7876))))
 (let ((?x3509 (* ?x3684 |v15:2|)))
 (let ((?x5446 (* 3.0 ?x4383)))
 (let ((?x2628 (+ (+ (+ (+ (+ (* ?x2249 |v14:3|) ?x6472) (* 19.0 ?x5470)) ?x5918) ?x8550) ?x5446)))
 (let ((?x1126 (+ (+ (+ (+ (+ ?x6438 ?x9377) (* 16.0 |v0:17|)) ?x8629) (* 15.0 |v5:12|)) ?x9523)))
 (let ((?x8108 (* 19.0 ?x5470)))
 (let ((?x3864 (* ?x9046 |v1:16|)))
 (let ((?x560 (* ?x4592 |v1:16|)))
 (let ((?x9399 (+ (+ (+ (+ (* 9.0 ?x9214) (* 3.0 |v13:4|)) (* 14.0 |v5:12|)) ?x9078) ?x560)))
 (let ((?x1635 (* 9.0 ?x7358)))
 (let ((?x745 (* 8.0 |v14:3|)))
 (let ((?x3810 (+ (+ (+ (+ (* 3.0 ?x5470) (* 4.0 ?x4383)) ?x6128) ?x1049) (* ?x3237 ?x5828))))
 (let (($x9080 (and (<= (+ (+ ?x3810 ?x745) ?x1635) ?x2249) (<= (+ (+ ?x9399 ?x3864) ?x8108) 7.0))))
 (let ((?x6476 (* 20.0 |v14:3|)))
 (let ((?x4011 (* 12.0 |v0:17|)))
 (let ((?x4649 (+ (+ (+ (+ (* ?x9046 ?x7358) (* ?x212 |v13:4|)) (* 4.0 |v1:16|)) ?x6045) ?x2395)))
 (let ((?x2618 (+ (+ (+ (+ (* 4.0 |v12:5|) ?x3509) (* 19.0 |v15:2|)) (* 18.0 |v17:0|)) (* ?x4592 |v13:4|))))
 (let (($x2278 (and (<= (+ (+ ?x2618 ?x2936) ?x9401) ?x7925) (<= (+ (+ ?x4649 ?x4011) ?x6476) ?x7919))))
 (let (($x4379 (or (or $x2278 $x9080) (or (and (<= (+ ?x1126 ?x5663) 3.0) (<= (+ ?x2628 ?x3509) ?x7919)) $x606))))
 (let (($x6456 (and (and $x4379 (<= (+ (+ (+ ?x4986 (* ?x7919 ?x3704)) ?x4894) ?x3927) 4.0)) (or $x7609 $x3004))))
 (let (($x4184 (not (= |v6:11_st| (RMk1 val!10157)))))
 (let (($x3947 (not (= |v7:10_st| (RMk1 val!10156)))))
 (let (($x3746 (not (= |v8:9_st| (RMk1 val!10155)))))
 (let (($x3505 (not (= |v9:8_st| (RMk1 val!10154)))))
 (let (($x1202 (not (= |v10:7_st| (RMk1 val!10153)))))
 (let (($x2351 (not (= |v11:6_st| (RMk1 val!10152)))))
 (and $x2351 $x1202 $x3505 $x3746 $x3947 $x4184 (and (or $x6456 $x5316) $x5529)))))))))))))))))))))))))))))))))))))))))))))))))))))))))))))))))))))))))))))))))))))))))))))))))))))))))))))))))))))))))))))))))))))))))))))))))))))))))))))))))))))))))))))))))))))))))))))))))))))))))))))))))))))))))))))))))))))))))))))))))))))))))))))))))))))))))))))))))))))))))))))))))))))))))))))))))))))))))))))))))))))))))))))))))))))))))))))))))))))))))))))))))
 )
 )
 )
 )
 )
 )
 )
 )
 )
 )
 )
 )
 )
 )
 )
 )
 )
 )
(check-sat)
